000 000 000 000 000 000 000 000 -99 -99 -99 -99 000 000 000 000 -99 -99 000 000 000 000 -99 -99 000 000 000 000 -99 -99 000
000 000 000 000 000 000 000 000 -99 -99 -99 -99 -99 000 000 000 -99 -99 -99 000 000 000 000 -99 000 000 -99 000 -99 -99 000
-99 000 000 000 000 000 000 000 -99 -99 -99 000 -99 -99 000 000 000 -99 -99 000 000 -99 000 000 000 000 000 000 -99 -99 -99
000 000 000 000 000 000 000 000 000 -99 -99 -99 000 000 000 000 000 -99 -99 000 000 000 000 000 000 000 000 000 -99 -99 -99
000 000 000 000 000 000 000 000 000 000 -99 000 000 000 000 -99 000 000 -99 -99 000 000 000 000 000 000 -99 -99 000 -99 -99
000 000 000 000 000 000 000 000 000 000 000 000 000 000 000 -99 000 000 -99 -99 000 000 000 000 000 000 -99 -99 -99 -99 -99
000 000 000 000 000 -99 000 000 000 000 000 000 000 000 000 -99 000 000 -99 000 000 000 000 000 000 000 -99 -99 -99 -99 -99
000 000 -99 000 000 -99 -99 000 000 000 000 000 000 000 000 -99 000 000 000 000 000 000 000 000 000 -99 -99 -99 -99 000 000
000 000 000 000 000 -99 -99 001 000 000 000 000 000 000 000 -99 -99 000 000 000 000 -99 000 000 000 -99 -99 -99 -99 000 000
000 000 000 000 000 000 -99 000 000 000 000 000 000 000 000 000 -99 000 000 000 000 000 -99 -99 000 -99 -99 -99 000 000 000
000 000 000 000 000 000 -99 000 000 000 000 000 000 000 000 000 000 000 000 000 000 000 -99 -99 -99 -99 -99 -99 000 000 000
000 000 000 000 000 000 000 000 000 000 000 000 000 000 000 000 000 000 000 000 000 000 -99 000 -99 -99 -99 -99 000 000 000
000 000 000 000 000 000 000 000 000 000 000 000 000 000 000 000 000 000 000 -99 -99 000 -99 000 000 -99 -99 -99 000 000 -99
000 000 000 000 000 000 000 000 000 000 000 000 -99 000 000 000 000 000 000 000 -99 -99 -99 000 000 000 000 000 000 000 -99
000 000 000 000 000 000 000 000 000 000 -99 -99 -99 000 000 000 000 000 000 000 -99 -99 -99 000 000 000 000 000 000 000 -99
000 -99 -99 -99 000 000 000 000 000 000 -99 -99 -99 000 000 000 000 000 000 000 -99 000 -99 000 000 000 000 000 000 -99 -99
000 -99 -99 -99 -99 -99 000 000 000 000 000 -99 -99 000 000 000 000 000 000 000 -99 -99 000 000 000 000 000 000 000 000 -99
000 000 000 -99 -99 -99 -99 000 000 000 000 000 -99 000 000 000 000 000 000 -99 -99 000 000 -99 000 000 000 000 -99 000 -99
000 000 000 -99 -99 -99 -99 000 000 000 000 000 -99 -99 000 000 000 000 000 -99 000 000 000 -99 000 000 000 000 -99 000 -99
000 000 000 000 -99 -99 -99 000 000 000 000 000 000 000 000 000 000 000 000 000 000 000 000 -99 -99 -99 -99 -99 -99 000 -99
000 000 000 000 000 000 -99 000 000 000 000 000 000 000 000 000 000 000 000 000 000 000 000 -99 -99 -99 -99 -99 -99 -99 -99
000 000 000 000 000 000 000 000 000 000 000 000 000 000 000 000 000 000 000 000 000 000 000 -99 -99 -99 -99 -99 -99 -99 -99
000 000 000 000 000 000 000 000 000 000 -99 -99 000 000 000 000 000 000 000 000 000 000 000 -99 -99 -99 -99 -99 -99 -99 -99
000 000 000 000 000 000 -99 000 000 000 -99 -99 000 000 000 000 000 000 000 000 000 000 000 -99 -99 -99 -99 -99 -99 -99 -99
000 000 000 000 000 000 000 000 000 -99 000 -99 000 000 000 000 000 000 000 000 000 000 000 -99 -99 -99 -99 -99 -99 -99 -99
000 000 000 000 000 000 000 000 000 000 000 -99 -99 000 000 000 000 000 000 000 000 000 -99 -99 -99 -99 -99 -99 -99 -99 -99
000 000 000 000 000 000 000 000 000 000 000 -99 000 000 000 -99 000 000 000 000 000 000 000 -99 -99 -99 -99 -99 -99 -99 -99
000 000 000 000 000 000 000 000 000 000 -99 -99 000 000 000 000 000 -99 000 000 000 000 000 -99 -99 -99 -99 -99 -99 -99 -99
000 000 000 000 000 000 000 000 000 000 -99 -99 000 000 000 000 000 000 000 -99 000 000 -99 -99 -99 017 017 -99 -99 -99 -99
000 000 000 000 000 000 000 000 000 000 -99 -99 -99 000 000 000 000 000 000 -99 000 000 -99 -99 -99 -99 017 -99 -99 -99 -99
000 000 000 000 000 000 000 000 000 000 -99 -99 -99 000 000 000 000 000 000 -99 -99 000 -99 -99 -99 -99 -99 -99 -99 -99 -99
000 000 000 000 000 000 000 -99 000 000 -99 -99 -99 000 000 -99 000 000 000 -99 -99 000 -99 -99 000 000 -99 -99 -99 -99 -99
000 000 000 000 000 000 -99 000 000 000 -99 -99 -99 000 000 -99 000 000 000 -99 -99 000 -99 -99 000 000 -99 000 000 -99 000
000 000 000 000 000 000 000 000 000 000 -99 -99 -99 000 000 000 000 000 -99 -99 -99 000 -99 -99 000 000 -99 000 000 000 000
000 000 000 000 000 000 000 000 000 000 -99 -99 000 000 000 000 000 -99 000 000 000 -99 -99 000 000 000 000 000 000 000 000
000 000 000 000 000 000 000 000 000 000 000 -99 000 000 000 000 000 -99 000 000 000 000 000 000 000 000 000 000 000 000 000
000 000 000 000 000 000 000 000 000 000 000 -99 000 000 000 000 000 000 000 000 000 000 000 000 000 000 000 000 000 000 000
000 000 000 000 000 -99 -99 000 000 -99 -99 000 000 000 000 000 000 -99 000 000 000 000 000 000 000 000 000 000 000 000 000
000 000 000 000 000 -99 000 000 000 -99 -99 000 000 000 000 000 000 -99 -99 000 000 -99 -99 000 000 000 000 000 000 -99 000
000 -99 000 000 000 000 000 -99 -99 -99 -99 000 000 000 000 000 000 000 -99 -99 -99 -99 000 000 000 000 000 000 000 -99 000
000 000 000 000 000 000 000 -99 -99 000 000 000 000 000 000 000 000 000 -99 -99 -99 000 000 000 000 000 000 000 -99 -99 000
000 000 000 000 000 000 000 000 000 000 000 000 000 000 000 000 000 -99 -99 -99 -99 -99 000 000 -99 -99 -99 -99 -99 000 000
000 000 000 000 000 000 000 000 000 000 000 000 000 000 000 000 000 000 000 -99 -99 000 000 -99 -99 -99 -99 -99 -99 -99 -99
000 000 -99 -99 000 000 000 000 000 000 000 000 000 000 000 000 000 000 000 000 -99 000 000 -99 000 000 -99 -99 -99 -99 -99
000 000 -99 -99 000 000 000 -99 -99 000 000 000 000 000 000 000 000 000 000 -99 -99 -99 -99 000 000 -99 -99 -99 -99 -99 -99
000 000 -99 -99 -99 -99 -99 -99 -99 -99 000 000 000 000 000 000 000 000 000 -99 -99 -99 -99 000 000 -99 -99 -99 -99 -99 -99
000 000 -99 -99 -99 -99 -99 -99 -99 000 000 000 000 000 000 000 -99 -99 -99 -99 -99 -99 000 000 000 -99 -99 -99 -99 -99 -99
000 -99 -99 -99 -99 -99 -99 -99 000 000 000 000 000 000 000 -99 -99 -99 -99 -99 -99 -99 000 -99 000 -99 000 000 -99 -99 -99
000 -99 -99 -99 -99 -99 -99 -99 000 000 -99 000 000 000 -99 -99 -99 000 000 000 000 000 000 000 -99 -99 000 000 -99 -99 -99
-99 -99 -99 -99 -99 -99 -99 -99 000 000 -99 000 -99 000 -99 -99 -99 000 000 000 000 000 -99 000 -99 -99 000 000 -99 -99 -99
-99 -99 -99 -99 -99 -99 -99 -99 -99 -99 -99 000 000 -99 -99 -99 000 000 000 000 000 000 -99 -99 -99 -99 000 -99 -99 -99 -99
-99 -99 -99 -99 -99 -99 -99 -99 -99 000 000 000 000 -99 -99 000 000 000 000 000 000 -99 -99 -99 -99 -99 -99 -99 -99 -99 -99
-99 -99 -99 -99 -99 -99 -99 -99 -99 -99 000 000 000 000 000 000 000 000 000 000 000 -99 -99 -99 -99 -99 -99 -99 -99 -99 -99
-99 -99 -99 -99 -99 -99 -99 -99 -99 -99 -99 000 -99 000 000 000 000 000 000 000 -99 -99 -99 -99 -99 -99 -99 -99 -99 -99 -99
-99 -99 -99 000 -99 -99 -99 -99 -99 -99 -99 -99 -99 000 001 000 000 000 000 -99 -99 -99 -99 -99 -99 -99 -99 -99 -99 -99 -99
